jobs  (incl. supersource/sink ):	102
RESOURCES
- renewable                 : 2 R
- nonrenewable              : 4 N
- doubly constrained        : 0 D
************************************************************************
PRECEDENCE RELATIONS:
jobnr.    #modes  #successors   successors
1	1	11		2 3 4 5 7 8 9 10 11 13 14 
2	9	4		24 16 15 12 
3	9	7		26 25 21 19 18 16 15 
4	9	2		21 6 
5	9	2		20 6 
6	9	6		29 26 25 24 18 16 
7	9	5		26 25 21 18 16 
8	9	7		32 29 26 24 22 18 17 
9	9	4		26 25 18 16 
10	9	6		32 29 25 22 18 17 
11	9	3		29 18 15 
12	9	6		31 28 26 25 21 18 
13	9	6		42 34 31 26 21 18 
14	9	9		41 34 32 31 30 29 26 25 23 
15	9	5		32 30 23 22 17 
16	9	3		32 22 17 
17	9	8		42 38 36 34 33 31 28 27 
18	9	4		41 38 30 23 
19	9	4		42 41 38 23 
20	9	4		42 41 38 23 
21	9	10		48 43 41 40 38 37 36 33 32 29 
22	9	8		44 42 39 38 37 36 35 34 
23	9	5		48 36 35 33 27 
24	9	9		53 46 44 43 42 40 38 35 33 
25	9	8		53 46 45 42 40 39 38 35 
26	9	7		50 48 40 39 37 36 35 
27	9	8		53 51 50 45 44 43 40 37 
28	9	7		55 50 48 45 41 37 35 
29	9	5		50 45 44 39 35 
30	9	9		53 52 51 50 49 48 47 46 39 
31	9	5		52 50 48 43 35 
32	9	7		60 57 52 50 49 46 39 
33	9	6		57 51 50 49 45 39 
34	9	5		53 50 45 43 40 
35	9	6		65 60 54 51 49 47 
36	9	6		57 53 51 49 46 45 
37	9	6		60 59 58 54 52 47 
38	9	9		68 65 63 62 60 59 54 52 50 
39	9	10		68 65 63 62 61 59 58 56 55 54 
40	9	8		68 65 64 63 62 60 54 49 
41	9	4		65 61 60 47 
42	9	5		62 59 55 52 48 
43	9	7		68 67 63 60 59 57 55 
44	9	5		68 65 57 54 52 
45	9	9		70 69 68 66 64 63 62 60 58 
46	9	5		68 64 61 58 54 
47	9	4		68 63 57 56 
48	9	7		70 69 68 66 64 63 58 
49	9	6		77 75 71 61 59 58 
50	9	5		75 71 64 61 58 
51	9	7		75 73 70 67 66 64 63 
52	9	5		77 67 66 64 61 
53	9	5		73 69 66 64 62 
54	9	7		77 76 75 74 69 67 66 
55	9	7		78 77 76 73 70 69 64 
56	9	5		75 71 69 67 64 
57	9	5		81 74 72 66 62 
58	9	6		81 76 74 73 72 67 
59	9	6		85 78 76 74 73 69 
60	9	7		82 79 78 76 73 72 71 
61	9	5		88 74 72 70 69 
62	9	9		101 87 85 83 82 80 79 78 76 
63	9	7		92 88 85 82 81 77 74 
64	9	6		88 82 81 80 74 72 
65	9	6		101 93 92 80 78 74 
66	9	4		87 79 78 71 
67	9	9		101 89 87 85 84 83 82 79 78 
68	9	3		87 82 71 
69	9	7		101 84 83 82 81 80 79 
70	9	8		94 92 87 86 85 84 83 82 
71	9	7		101 94 93 92 85 83 80 
72	9	8		101 93 92 89 86 85 84 83 
73	9	8		101 100 94 92 91 87 84 80 
74	9	5		100 87 84 83 79 
75	9	5		101 92 87 84 79 
76	9	6		100 92 91 89 86 84 
77	9	3		101 100 80 
78	9	5		99 96 94 88 86 
79	9	5		99 98 96 91 86 
80	9	4		98 96 89 86 
81	9	3		96 87 86 
82	9	5		100 99 97 96 93 
83	9	4		99 98 91 90 
84	9	3		99 96 95 
85	9	3		100 98 96 
86	9	2		97 90 
87	9	2		98 97 
88	9	2		97 95 
89	9	1		90 
90	9	1		95 
91	9	1		95 
92	9	1		96 
93	9	1		95 
94	9	1		98 
95	9	1		102 
96	9	1		102 
97	9	1		102 
98	9	1		102 
99	9	1		102 
100	9	1		102 
101	9	1		102 
102	1	0		
************************************************************************
REQUESTS/DURATIONS
jobnr.	mode	dur	R1	R2	N1	N2	N3	N4	
------------------------------------------------------------------------
1	1	0	0	0	0	0	0	0	
2	1	3	5	3	25	26	25	16	
	2	8	4	3	22	25	24	15	
	3	18	4	3	22	25	22	13	
	4	23	4	3	20	25	17	13	
	5	24	3	3	20	24	14	11	
	6	25	3	3	19	24	12	11	
	7	26	3	3	17	23	10	10	
	8	27	3	3	16	23	4	9	
	9	29	3	3	16	23	2	8	
3	1	3	3	4	26	19	23	29	
	2	4	3	4	22	19	22	28	
	3	10	3	4	22	18	21	28	
	4	11	3	3	19	16	20	27	
	5	13	3	3	15	16	16	26	
	6	17	3	3	11	14	16	25	
	7	25	3	3	8	13	14	25	
	8	26	3	2	5	12	12	24	
	9	29	3	2	3	11	10	23	
4	1	4	4	4	25	24	13	24	
	2	5	3	4	24	23	13	20	
	3	9	3	4	22	22	13	20	
	4	11	3	4	19	21	13	16	
	5	12	3	3	16	19	13	15	
	6	17	3	3	16	18	13	10	
	7	19	3	3	14	18	13	7	
	8	27	3	2	12	17	13	5	
	9	30	3	2	9	16	13	2	
5	1	2	4	4	18	30	28	27	
	2	4	4	4	18	29	25	26	
	3	5	4	4	18	29	22	25	
	4	7	4	4	18	29	20	25	
	5	10	3	4	18	29	18	25	
	6	17	3	4	18	29	16	24	
	7	18	3	4	18	29	10	24	
	8	23	3	4	18	29	8	23	
	9	28	3	4	18	29	6	23	
6	1	1	5	3	6	11	20	16	
	2	3	4	3	5	10	20	14	
	3	8	3	3	5	10	20	14	
	4	15	3	3	4	10	19	13	
	5	16	3	3	4	9	19	10	
	6	22	2	3	4	8	18	9	
	7	25	2	3	3	8	18	7	
	8	27	1	3	3	6	17	6	
	9	28	1	3	3	6	17	5	
7	1	1	4	5	21	15	4	23	
	2	9	3	4	20	14	4	23	
	3	10	3	3	20	14	4	19	
	4	15	3	3	19	14	4	18	
	5	17	3	3	19	13	4	16	
	6	18	2	2	19	13	4	15	
	7	19	2	1	18	13	4	12	
	8	20	2	1	18	12	4	10	
	9	24	2	1	18	12	4	9	
8	1	1	3	3	6	28	16	15	
	2	2	3	3	5	28	16	15	
	3	3	3	3	5	27	15	15	
	4	10	3	3	5	27	14	14	
	5	13	3	2	4	26	12	14	
	6	14	3	2	3	25	11	14	
	7	20	3	2	3	25	10	14	
	8	21	3	2	2	25	9	13	
	9	26	3	2	1	24	8	13	
9	1	1	3	3	4	26	27	11	
	2	5	3	2	4	25	27	10	
	3	6	3	2	4	25	26	9	
	4	7	3	2	4	23	26	7	
	5	10	3	2	3	23	26	6	
	6	11	3	2	3	22	25	4	
	7	12	3	2	2	21	24	3	
	8	16	3	2	2	20	24	3	
	9	18	3	2	2	20	24	2	
10	1	9	3	4	27	23	30	11	
	2	12	2	4	27	21	29	10	
	3	13	2	4	25	18	29	10	
	4	18	2	4	23	18	29	10	
	5	21	2	3	18	15	28	9	
	6	22	2	3	16	10	28	9	
	7	24	2	3	16	10	27	8	
	8	28	2	3	12	5	27	8	
	9	29	2	3	10	4	27	8	
11	1	1	1	5	9	29	19	23	
	2	2	1	4	8	28	19	23	
	3	8	1	4	8	27	19	23	
	4	17	1	4	8	26	19	23	
	5	22	1	4	8	26	19	22	
	6	23	1	4	7	25	19	22	
	7	25	1	4	7	24	19	22	
	8	28	1	4	7	23	19	22	
	9	29	1	4	7	23	19	21	
12	1	1	4	5	21	12	23	9	
	2	5	4	5	21	12	23	8	
	3	6	4	5	21	10	23	8	
	4	7	4	5	21	10	23	7	
	5	17	4	5	21	8	22	6	
	6	25	4	5	21	7	22	6	
	7	26	4	5	21	7	22	5	
	8	27	4	5	21	6	22	5	
	9	30	4	5	21	5	22	5	
13	1	2	3	4	19	26	27	28	
	2	4	2	4	17	23	23	28	
	3	9	2	4	17	22	21	28	
	4	19	2	4	15	22	18	28	
	5	25	2	3	15	20	13	27	
	6	26	2	3	14	19	13	27	
	7	27	2	3	13	18	9	27	
	8	29	2	3	12	17	7	27	
	9	30	2	3	12	15	4	27	
14	1	4	4	4	9	11	26	27	
	2	5	4	4	9	10	22	26	
	3	11	4	4	8	10	21	24	
	4	14	4	3	8	10	17	23	
	5	16	4	3	7	10	17	23	
	6	20	4	3	6	10	13	21	
	7	23	4	2	6	10	13	21	
	8	24	4	2	5	10	9	20	
	9	25	4	2	5	10	7	19	
15	1	8	5	3	22	24	23	20	
	2	10	4	2	20	21	20	16	
	3	12	4	2	19	20	19	16	
	4	14	3	2	19	18	16	14	
	5	15	3	2	17	17	13	12	
	6	21	2	2	15	16	9	8	
	7	23	1	2	14	15	6	7	
	8	29	1	2	10	11	3	6	
	9	30	1	2	9	10	2	2	
16	1	5	4	4	13	26	24	29	
	2	11	3	4	13	23	24	25	
	3	12	3	4	11	20	23	23	
	4	18	3	4	11	17	23	21	
	5	19	2	4	10	12	22	21	
	6	21	2	4	9	11	22	19	
	7	23	1	4	7	9	22	16	
	8	27	1	4	7	6	21	13	
	9	29	1	4	6	4	21	13	
17	1	1	5	4	29	17	28	22	
	2	2	4	4	28	16	28	22	
	3	4	4	4	27	15	28	20	
	4	6	4	4	26	14	27	20	
	5	9	3	4	24	14	27	18	
	6	14	3	4	23	13	27	17	
	7	15	2	4	20	13	27	16	
	8	18	2	4	20	13	26	14	
	9	25	2	4	18	12	26	13	
18	1	4	4	4	11	10	18	27	
	2	7	4	4	10	10	17	23	
	3	12	4	4	9	10	16	22	
	4	13	4	4	8	9	15	21	
	5	14	3	4	6	9	14	18	
	6	22	3	4	5	9	12	15	
	7	26	2	4	4	8	12	13	
	8	27	2	4	3	8	10	13	
	9	28	2	4	3	8	9	9	
19	1	4	4	1	25	8	11	10	
	2	6	3	1	23	8	11	10	
	3	11	3	1	19	6	11	10	
	4	14	3	1	19	6	11	9	
	5	17	2	1	16	5	11	10	
	6	18	2	1	14	3	11	10	
	7	23	2	1	13	3	11	10	
	8	25	2	1	10	1	11	10	
	9	26	2	1	8	1	11	10	
20	1	6	5	2	21	14	11	15	
	2	9	4	1	20	13	11	14	
	3	13	4	1	16	12	10	14	
	4	17	4	1	16	11	9	14	
	5	19	4	1	13	9	9	13	
	6	23	3	1	11	8	9	13	
	7	24	3	1	8	7	8	13	
	8	25	3	1	6	7	7	13	
	9	26	3	1	6	6	7	13	
21	1	12	4	3	2	21	29	18	
	2	13	4	2	2	20	24	17	
	3	14	4	2	2	19	22	17	
	4	15	3	2	2	19	22	16	
	5	16	3	2	2	19	18	16	
	6	17	3	2	2	18	17	16	
	7	21	3	2	2	18	14	16	
	8	22	2	2	2	17	14	15	
	9	27	2	2	2	17	10	15	
22	1	3	4	4	25	29	4	18	
	2	5	4	4	23	27	4	18	
	3	6	4	4	23	22	3	18	
	4	9	4	4	22	21	3	18	
	5	17	4	4	21	19	3	18	
	6	19	4	4	19	16	2	18	
	7	21	4	4	18	13	1	18	
	8	23	4	4	17	12	1	18	
	9	25	4	4	17	10	1	18	
23	1	7	4	3	24	2	28	11	
	2	8	4	3	24	2	26	10	
	3	9	4	3	23	2	25	10	
	4	12	4	3	23	2	25	9	
	5	13	4	3	21	2	23	9	
	6	14	4	3	21	2	22	9	
	7	16	4	3	21	2	21	9	
	8	18	4	3	20	2	20	8	
	9	27	4	3	19	2	19	8	
24	1	6	2	2	19	23	22	14	
	2	10	2	1	19	21	22	13	
	3	12	2	1	17	20	21	11	
	4	14	2	1	17	20	19	10	
	5	17	2	1	15	19	18	9	
	6	22	2	1	15	17	16	8	
	7	23	2	1	13	16	15	7	
	8	27	2	1	13	15	14	6	
	9	29	2	1	12	14	12	5	
25	1	1	3	5	5	26	21	13	
	2	4	3	5	5	26	21	12	
	3	10	3	5	5	25	21	13	
	4	13	3	5	5	24	21	13	
	5	20	3	5	5	22	20	12	
	6	26	3	5	5	22	20	11	
	7	27	3	5	5	21	20	12	
	8	29	3	5	5	20	20	11	
	9	30	3	5	5	19	20	11	
26	1	1	1	4	17	22	23	21	
	2	2	1	4	16	17	21	19	
	3	3	1	4	13	17	19	15	
	4	5	1	4	10	15	16	13	
	5	6	1	3	9	11	13	10	
	6	7	1	3	7	10	10	10	
	7	10	1	2	5	9	7	6	
	8	22	1	2	2	5	5	4	
	9	25	1	2	1	3	3	4	
27	1	4	3	4	10	17	24	20	
	2	5	2	3	10	17	20	19	
	3	6	2	3	8	17	19	19	
	4	10	2	3	7	17	18	17	
	5	11	2	3	7	17	16	17	
	6	12	1	3	6	17	12	16	
	7	14	1	3	6	17	11	14	
	8	19	1	3	5	17	7	14	
	9	26	1	3	4	17	7	13	
28	1	5	3	5	19	24	22	17	
	2	6	2	5	18	23	21	17	
	3	9	2	5	16	21	20	17	
	4	10	2	5	16	19	20	16	
	5	18	2	5	15	19	19	16	
	6	19	2	5	13	16	18	15	
	7	21	2	5	12	14	17	14	
	8	22	2	5	12	14	16	14	
	9	23	2	5	10	12	14	14	
29	1	1	4	4	13	28	26	9	
	2	2	3	4	13	25	23	8	
	3	4	3	4	13	25	21	8	
	4	5	3	4	13	21	17	7	
	5	10	3	3	13	20	15	7	
	6	17	2	3	13	16	13	7	
	7	21	2	3	13	16	10	6	
	8	25	2	3	13	13	8	6	
	9	30	2	3	13	11	6	6	
30	1	2	4	4	27	21	21	23	
	2	9	4	4	25	21	18	22	
	3	10	4	4	25	19	17	22	
	4	12	4	4	24	16	15	22	
	5	13	3	4	23	15	11	21	
	6	18	3	3	20	13	9	21	
	7	20	2	3	19	11	9	21	
	8	24	2	3	19	10	7	21	
	9	26	2	3	18	8	4	21	
31	1	1	4	3	25	29	25	23	
	2	6	4	3	23	28	21	22	
	3	10	4	3	21	26	21	19	
	4	11	4	3	19	24	19	18	
	5	12	4	3	15	23	17	15	
	6	20	4	3	12	22	15	14	
	7	23	4	3	12	19	14	12	
	8	24	4	3	9	19	13	10	
	9	27	4	3	7	17	11	7	
32	1	3	1	5	23	17	6	14	
	2	16	1	4	19	16	6	14	
	3	17	1	4	18	15	6	13	
	4	18	1	3	15	14	6	12	
	5	19	1	3	12	12	6	12	
	6	20	1	3	10	11	6	11	
	7	21	1	3	9	9	6	10	
	8	24	1	2	8	7	6	9	
	9	26	1	2	4	7	6	9	
33	1	4	2	4	18	24	13	22	
	2	7	1	3	18	22	12	20	
	3	8	1	3	16	18	12	19	
	4	10	1	3	16	17	12	19	
	5	14	1	3	15	14	11	18	
	6	15	1	3	15	14	11	15	
	7	16	1	3	13	10	10	15	
	8	25	1	3	13	8	10	13	
	9	29	1	3	12	7	9	13	
34	1	2	4	3	25	28	17	9	
	2	4	3	2	23	28	16	8	
	3	13	3	2	23	26	15	8	
	4	14	2	2	23	24	14	8	
	5	16	2	1	22	24	14	8	
	6	20	2	1	22	22	14	8	
	7	21	2	1	21	20	13	8	
	8	25	1	1	21	18	13	8	
	9	26	1	1	20	17	12	8	
35	1	3	5	4	16	7	12	17	
	2	4	4	4	14	7	11	16	
	3	5	4	4	14	6	11	14	
	4	12	3	4	13	6	9	13	
	5	21	3	3	11	5	9	12	
	6	26	3	3	11	4	8	11	
	7	27	3	3	9	4	7	10	
	8	28	2	2	8	4	6	9	
	9	30	2	2	8	3	6	8	
36	1	7	3	5	19	20	13	10	
	2	8	3	5	19	16	12	10	
	3	17	3	5	17	15	12	10	
	4	18	3	5	15	13	11	10	
	5	19	2	5	13	11	10	9	
	6	22	2	5	10	10	10	9	
	7	23	2	5	9	6	10	9	
	8	27	2	5	5	6	9	8	
	9	28	2	5	5	2	8	8	
37	1	2	5	3	25	21	14	29	
	2	3	4	3	23	21	13	29	
	3	4	4	3	19	20	13	29	
	4	7	3	3	15	20	11	29	
	5	8	2	3	13	20	11	28	
	6	17	2	3	12	19	11	28	
	7	18	2	3	7	19	10	28	
	8	22	1	3	5	18	9	27	
	9	23	1	3	4	18	8	27	
38	1	1	4	2	27	28	21	29	
	2	4	3	2	25	27	21	28	
	3	19	3	2	22	26	21	28	
	4	20	3	2	19	24	21	28	
	5	23	2	2	16	23	21	28	
	6	24	2	2	15	22	21	28	
	7	25	2	2	12	20	21	28	
	8	28	2	2	12	18	21	28	
	9	29	2	2	10	17	21	28	
39	1	12	2	2	18	28	19	23	
	2	13	2	1	16	27	17	21	
	3	15	2	1	16	25	14	21	
	4	17	2	1	15	24	12	17	
	5	21	2	1	14	23	11	16	
	6	22	2	1	11	22	8	13	
	7	23	2	1	11	22	6	13	
	8	24	2	1	9	20	5	9	
	9	25	2	1	8	19	1	8	
40	1	2	5	4	13	26	28	15	
	2	6	4	4	13	26	26	14	
	3	7	3	3	11	26	23	14	
	4	13	3	3	11	26	19	13	
	5	17	2	3	10	25	18	13	
	6	21	2	2	8	25	14	12	
	7	22	1	2	7	25	12	11	
	8	23	1	1	7	24	12	11	
	9	26	1	1	6	24	8	11	
41	1	4	5	5	25	17	1	5	
	2	6	4	4	23	15	1	4	
	3	14	4	4	19	13	1	4	
	4	18	4	4	19	11	1	3	
	5	22	3	3	16	10	1	3	
	6	24	3	3	15	9	1	3	
	7	27	3	3	12	5	1	2	
	8	29	3	3	10	5	1	1	
	9	30	3	3	9	1	1	1	
42	1	5	1	4	14	21	7	29	
	2	11	1	4	14	21	6	27	
	3	16	1	3	14	20	6	27	
	4	18	1	3	14	19	6	24	
	5	20	1	3	13	18	5	23	
	6	22	1	2	13	15	5	23	
	7	26	1	2	13	15	5	21	
	8	27	1	1	13	13	5	19	
	9	30	1	1	13	13	5	18	
43	1	6	1	1	15	13	27	15	
	2	7	1	1	14	13	25	12	
	3	9	1	1	14	13	25	11	
	4	10	1	1	14	13	24	11	
	5	12	1	1	14	12	22	10	
	6	15	1	1	14	12	19	9	
	7	23	1	1	14	11	18	8	
	8	25	1	1	14	11	17	6	
	9	27	1	1	14	11	15	5	
44	1	1	2	4	30	20	25	23	
	2	2	2	3	29	18	21	20	
	3	3	2	3	28	17	20	19	
	4	4	2	2	27	16	18	19	
	5	12	2	2	27	14	18	16	
	6	13	2	2	27	13	17	16	
	7	14	2	1	26	12	14	15	
	8	15	2	1	25	10	13	14	
	9	19	2	1	25	9	11	12	
45	1	2	5	2	17	17	23	20	
	2	8	4	1	15	15	23	20	
	3	15	4	1	14	15	23	20	
	4	20	4	1	13	14	23	19	
	5	21	3	1	12	13	23	19	
	6	22	3	1	10	12	22	19	
	7	26	3	1	10	11	22	19	
	8	28	2	1	9	9	22	18	
	9	29	2	1	7	9	22	18	
46	1	2	4	3	24	8	27	28	
	2	4	3	3	22	6	25	24	
	3	6	3	3	22	5	22	22	
	4	7	2	2	17	4	21	19	
	5	10	2	2	16	4	19	17	
	6	15	2	2	13	4	17	13	
	7	16	1	2	10	3	17	12	
	8	17	1	1	9	1	13	9	
	9	26	1	1	6	1	13	6	
47	1	5	3	4	19	29	11	25	
	2	8	2	4	17	25	11	24	
	3	10	2	4	17	24	10	24	
	4	14	2	4	13	23	8	24	
	5	15	1	4	13	20	8	23	
	6	16	1	4	11	18	6	23	
	7	19	1	4	9	16	5	23	
	8	22	1	4	7	15	5	22	
	9	25	1	4	3	13	4	22	
48	1	1	5	4	20	21	29	9	
	2	3	5	4	18	18	27	9	
	3	4	5	4	18	17	26	9	
	4	7	5	4	17	15	23	8	
	5	9	5	4	15	14	23	8	
	6	11	5	4	13	13	20	8	
	7	19	5	4	13	13	18	8	
	8	22	5	4	11	10	17	7	
	9	24	5	4	9	9	16	7	
49	1	4	3	5	27	25	20	24	
	2	7	3	4	24	24	20	22	
	3	8	3	4	22	24	20	22	
	4	9	3	3	19	22	19	20	
	5	16	3	2	16	22	19	20	
	6	18	3	2	16	22	19	19	
	7	21	3	1	14	20	18	19	
	8	22	3	1	9	19	18	18	
	9	23	3	1	9	19	18	17	
50	1	1	5	3	10	28	4	20	
	2	7	4	3	9	28	4	18	
	3	9	4	3	7	28	4	18	
	4	12	4	3	7	27	4	17	
	5	16	3	3	6	27	4	17	
	6	17	3	3	5	27	4	16	
	7	21	2	3	4	27	4	16	
	8	24	2	3	3	26	4	15	
	9	25	2	3	2	26	4	15	
51	1	6	5	5	10	8	22	11	
	2	18	5	4	9	8	22	11	
	3	20	5	3	9	8	22	9	
	4	23	5	3	8	8	22	8	
	5	24	5	2	8	8	22	8	
	6	25	5	2	8	8	22	7	
	7	26	5	2	7	8	22	5	
	8	27	5	1	7	8	22	5	
	9	30	5	1	7	8	22	4	
52	1	3	4	2	5	12	26	14	
	2	4	4	2	4	11	23	13	
	3	9	4	2	4	11	22	13	
	4	10	4	2	3	9	21	12	
	5	14	4	1	2	9	21	12	
	6	16	3	1	2	7	18	11	
	7	17	3	1	1	6	18	11	
	8	21	3	1	1	6	17	11	
	9	25	3	1	1	4	16	10	
53	1	9	2	4	15	18	21	21	
	2	15	2	3	13	17	18	20	
	3	18	2	3	11	15	18	16	
	4	19	2	3	10	14	16	16	
	5	20	2	3	8	11	14	11	
	6	21	1	3	8	10	12	9	
	7	25	1	3	6	9	12	9	
	8	28	1	3	5	7	11	5	
	9	29	1	3	5	5	8	3	
54	1	6	5	3	27	27	24	28	
	2	8	4	3	26	24	23	28	
	3	13	3	3	23	23	21	27	
	4	14	3	3	19	23	19	25	
	5	16	3	2	18	21	17	25	
	6	22	2	2	17	20	15	23	
	7	25	1	2	15	20	14	23	
	8	26	1	2	10	19	12	21	
	9	29	1	2	10	17	8	21	
55	1	4	2	3	21	30	25	18	
	2	6	1	3	19	24	20	16	
	3	15	1	3	17	23	19	16	
	4	16	1	3	15	20	15	14	
	5	17	1	3	14	19	14	14	
	6	23	1	2	13	14	12	14	
	7	24	1	2	10	13	9	13	
	8	29	1	2	7	9	7	11	
	9	30	1	2	7	9	3	11	
56	1	3	3	5	16	17	26	28	
	2	5	3	4	14	15	21	26	
	3	12	3	4	12	15	18	23	
	4	18	3	4	10	15	16	22	
	5	21	2	4	10	14	15	20	
	6	22	2	3	7	13	13	19	
	7	23	2	3	7	12	9	17	
	8	24	2	3	4	12	7	16	
	9	28	2	3	4	11	4	16	
57	1	1	2	4	23	22	14	24	
	2	2	2	3	23	21	13	24	
	3	3	2	3	22	20	13	19	
	4	14	2	2	22	19	13	18	
	5	15	2	2	20	18	12	15	
	6	23	2	2	20	18	11	13	
	7	24	2	1	19	17	11	10	
	8	28	2	1	19	15	9	7	
	9	29	2	1	18	15	9	3	
58	1	1	4	3	29	29	7	28	
	2	3	4	3	29	28	7	25	
	3	5	4	3	29	28	7	21	
	4	6	4	3	29	28	7	17	
	5	7	4	3	28	27	7	15	
	6	9	3	3	28	26	7	10	
	7	16	3	3	27	26	7	10	
	8	21	3	3	27	26	7	7	
	9	22	3	3	27	25	7	2	
59	1	1	3	3	28	28	19	20	
	2	3	3	3	28	26	18	19	
	3	6	3	3	27	23	16	18	
	4	9	3	3	26	20	15	17	
	5	10	3	2	26	17	13	17	
	6	12	3	2	25	13	12	16	
	7	14	3	2	25	13	10	14	
	8	21	3	1	24	9	10	14	
	9	25	3	1	24	6	7	13	
60	1	4	4	1	28	18	11	25	
	2	9	4	1	24	17	9	24	
	3	10	4	1	23	16	8	20	
	4	11	4	1	20	15	7	15	
	5	12	4	1	16	13	7	12	
	6	15	4	1	13	12	6	11	
	7	16	4	1	12	12	4	9	
	8	18	4	1	8	11	4	5	
	9	28	4	1	8	9	3	2	
61	1	6	3	3	21	13	15	14	
	2	7	2	2	19	12	14	14	
	3	9	2	2	19	11	13	14	
	4	10	2	2	17	9	12	14	
	5	13	2	2	15	9	11	14	
	6	19	2	1	10	9	11	14	
	7	23	2	1	9	7	11	14	
	8	28	2	1	7	6	10	14	
	9	29	2	1	5	6	9	14	
62	1	2	4	5	22	16	28	21	
	2	4	4	4	21	13	27	21	
	3	5	4	4	19	11	25	20	
	4	6	4	4	16	10	22	20	
	5	7	4	3	15	9	21	19	
	6	8	4	3	13	7	20	19	
	7	10	4	3	12	6	18	18	
	8	18	4	3	10	4	14	18	
	9	29	4	3	8	4	13	17	
63	1	6	2	5	24	15	28	28	
	2	7	2	4	23	15	27	26	
	3	8	2	4	22	14	26	25	
	4	13	2	4	21	14	26	24	
	5	16	2	3	18	13	25	24	
	6	17	2	3	17	13	25	23	
	7	23	2	2	15	12	24	23	
	8	24	2	2	13	12	23	22	
	9	25	2	2	13	11	23	21	
64	1	7	3	4	15	20	28	20	
	2	11	3	3	14	17	25	16	
	3	13	3	3	12	17	25	15	
	4	14	2	2	12	16	24	12	
	5	15	2	2	9	15	21	10	
	6	25	2	2	9	14	21	10	
	7	26	1	2	8	13	19	7	
	8	29	1	1	7	11	17	4	
	9	30	1	1	6	10	17	4	
65	1	2	2	2	10	27	8	23	
	2	5	1	2	9	27	7	22	
	3	6	1	2	8	25	7	22	
	4	12	1	2	6	25	7	22	
	5	15	1	2	5	23	6	21	
	6	21	1	2	5	22	5	21	
	7	28	1	2	4	21	5	21	
	8	29	1	2	2	20	3	21	
	9	30	1	2	1	18	3	21	
66	1	1	3	2	12	22	17	21	
	2	7	3	2	11	22	16	19	
	3	14	3	2	9	22	14	19	
	4	18	3	2	9	22	14	18	
	5	19	3	1	6	22	12	16	
	6	27	3	1	5	22	11	16	
	7	28	3	1	5	22	10	14	
	8	29	3	1	2	22	10	14	
	9	30	3	1	2	22	9	12	
67	1	3	5	4	18	25	18	24	
	2	8	4	3	15	21	16	22	
	3	15	4	3	14	19	15	22	
	4	21	4	3	13	17	14	21	
	5	22	4	3	12	15	11	21	
	6	25	3	2	9	13	9	20	
	7	26	3	2	8	13	8	19	
	8	28	3	2	6	11	5	19	
	9	30	3	2	4	8	4	18	
68	1	2	4	4	18	8	22	4	
	2	10	4	3	18	7	21	4	
	3	11	4	3	17	7	21	4	
	4	12	3	3	14	7	20	4	
	5	13	3	3	13	6	19	4	
	6	14	2	3	12	6	19	4	
	7	16	1	3	12	6	18	4	
	8	22	1	3	9	6	18	4	
	9	23	1	3	8	6	18	4	
69	1	3	1	5	17	28	8	18	
	2	5	1	5	16	24	7	16	
	3	6	1	5	16	23	7	14	
	4	7	1	5	15	22	6	11	
	5	12	1	5	14	19	6	11	
	6	14	1	5	14	16	5	8	
	7	21	1	5	14	15	5	7	
	8	24	1	5	12	14	5	5	
	9	25	1	5	12	10	4	5	
70	1	1	4	3	16	9	13	12	
	2	2	3	2	15	9	11	11	
	3	10	3	2	13	8	10	10	
	4	11	2	2	11	6	9	9	
	5	12	2	2	10	6	6	8	
	6	20	2	1	9	5	5	8	
	7	21	1	1	6	3	3	7	
	8	23	1	1	6	2	2	6	
	9	27	1	1	4	2	2	5	
71	1	3	2	4	13	4	21	10	
	2	5	2	4	12	3	19	9	
	3	6	2	4	11	3	16	8	
	4	10	2	3	10	3	16	8	
	5	11	1	3	9	2	14	8	
	6	12	1	2	8	2	11	7	
	7	13	1	1	7	2	10	6	
	8	21	1	1	6	2	7	6	
	9	23	1	1	5	2	7	6	
72	1	2	5	5	23	22	25	27	
	2	10	4	5	23	18	23	22	
	3	17	4	5	19	16	23	21	
	4	18	4	5	19	15	21	19	
	5	19	4	5	15	12	21	16	
	6	23	3	5	14	11	21	13	
	7	24	3	5	12	9	20	10	
	8	25	3	5	10	5	18	8	
	9	26	3	5	9	4	18	3	
73	1	1	4	3	22	30	13	21	
	2	2	4	3	22	29	12	21	
	3	4	4	3	19	28	11	21	
	4	9	4	3	16	28	10	20	
	5	17	4	2	14	26	9	19	
	6	19	4	2	12	26	9	19	
	7	26	4	1	10	25	8	19	
	8	29	4	1	6	25	7	18	
	9	30	4	1	4	24	6	18	
74	1	3	4	4	28	18	7	17	
	2	4	4	4	27	17	6	17	
	3	5	4	4	25	17	5	17	
	4	7	4	3	24	16	4	17	
	5	9	4	3	24	16	3	16	
	6	11	4	3	23	15	3	16	
	7	14	4	3	22	15	3	16	
	8	20	4	2	21	15	2	15	
	9	21	4	2	20	14	1	15	
75	1	5	5	1	16	24	9	23	
	2	6	4	1	15	23	8	23	
	3	8	4	1	15	21	7	23	
	4	10	4	1	14	20	7	22	
	5	11	4	1	13	18	7	22	
	6	13	4	1	13	15	6	22	
	7	24	4	1	12	14	6	21	
	8	27	4	1	11	13	5	21	
	9	28	4	1	10	12	5	21	
76	1	6	3	1	21	20	17	26	
	2	11	2	1	19	19	16	25	
	3	14	2	1	19	19	16	24	
	4	15	2	1	18	18	15	21	
	5	18	2	1	18	18	14	20	
	6	20	1	1	17	17	14	19	
	7	23	1	1	16	17	12	17	
	8	27	1	1	16	16	12	15	
	9	29	1	1	15	15	11	14	
77	1	1	5	4	13	26	17	5	
	2	2	4	4	11	25	17	5	
	3	5	3	4	9	25	17	5	
	4	10	3	4	8	25	17	5	
	5	11	2	4	7	25	16	4	
	6	12	2	4	6	25	16	4	
	7	18	2	4	5	25	16	4	
	8	19	1	4	3	25	16	4	
	9	22	1	4	1	25	16	4	
78	1	3	4	1	16	4	18	24	
	2	9	4	1	13	4	17	22	
	3	10	4	1	11	4	17	22	
	4	11	4	1	11	4	16	22	
	5	12	3	1	8	3	15	21	
	6	13	3	1	8	3	15	20	
	7	14	3	1	7	3	14	20	
	8	15	3	1	5	3	14	20	
	9	25	3	1	3	3	13	19	
79	1	3	1	2	17	24	30	28	
	2	5	1	1	16	24	28	24	
	3	10	1	1	16	23	27	23	
	4	13	1	1	15	22	27	19	
	5	23	1	1	14	22	25	19	
	6	26	1	1	14	22	25	15	
	7	28	1	1	13	21	23	14	
	8	29	1	1	13	20	22	11	
	9	30	1	1	13	20	22	9	
80	1	1	3	4	16	22	23	27	
	2	6	2	4	15	21	23	25	
	3	7	2	4	15	17	19	23	
	4	8	2	3	14	17	17	19	
	5	11	2	3	13	13	15	17	
	6	12	2	3	13	12	14	15	
	7	17	2	3	13	10	11	15	
	8	19	2	2	12	8	9	12	
	9	28	2	2	12	7	6	10	
81	1	1	5	3	23	13	26	22	
	2	2	4	3	22	13	24	22	
	3	3	4	3	20	12	21	21	
	4	12	4	3	19	12	20	19	
	5	13	4	3	18	11	15	19	
	6	17	4	3	17	11	14	17	
	7	18	4	3	16	11	10	17	
	8	19	4	3	16	10	10	16	
	9	22	4	3	14	10	6	14	
82	1	8	3	1	29	5	15	27	
	2	9	3	1	27	5	15	25	
	3	11	3	1	26	5	15	20	
	4	14	3	1	26	5	15	19	
	5	16	3	1	23	4	15	16	
	6	18	3	1	23	4	14	14	
	7	24	3	1	21	4	14	8	
	8	28	3	1	20	3	14	5	
	9	29	3	1	18	3	14	4	
83	1	5	4	3	18	29	13	30	
	2	9	3	2	18	27	12	24	
	3	14	3	2	18	25	12	22	
	4	15	2	2	18	23	12	18	
	5	16	2	1	18	21	12	13	
	6	23	2	1	18	21	12	10	
	7	24	1	1	18	20	12	9	
	8	25	1	1	18	17	12	4	
	9	27	1	1	18	16	12	4	
84	1	5	2	5	7	30	20	20	
	2	6	1	4	6	26	19	18	
	3	7	1	4	6	23	19	17	
	4	12	1	4	6	22	19	17	
	5	13	1	4	5	19	19	14	
	6	14	1	3	5	15	19	13	
	7	15	1	3	4	11	19	13	
	8	22	1	3	4	11	19	11	
	9	24	1	3	4	8	19	11	
85	1	1	4	3	10	21	19	22	
	2	2	3	2	10	20	18	22	
	3	3	3	2	10	19	18	20	
	4	5	3	2	10	18	17	17	
	5	6	3	2	10	18	16	15	
	6	12	2	1	9	17	16	14	
	7	13	2	1	9	16	15	13	
	8	15	2	1	9	16	14	11	
	9	25	2	1	9	15	14	10	
86	1	2	4	3	15	16	12	12	
	2	4	3	3	15	16	12	11	
	3	10	3	3	15	13	11	11	
	4	13	3	3	15	13	11	10	
	5	19	3	3	14	11	10	9	
	6	25	2	3	14	10	10	9	
	7	26	2	3	13	7	9	8	
	8	28	2	3	13	6	8	8	
	9	30	2	3	13	5	8	8	
87	1	5	4	2	24	18	17	21	
	2	7	3	2	22	16	17	21	
	3	12	3	2	19	12	17	20	
	4	13	3	2	15	10	17	19	
	5	14	2	2	14	10	17	17	
	6	20	2	2	11	6	17	16	
	7	24	2	2	9	6	17	15	
	8	27	2	2	4	2	17	14	
	9	29	2	2	3	1	17	14	
88	1	1	2	3	26	29	24	17	
	2	5	2	2	25	26	22	14	
	3	6	2	2	23	25	20	14	
	4	10	2	2	22	24	19	10	
	5	15	2	1	20	24	16	10	
	6	16	2	1	19	23	16	8	
	7	23	2	1	16	22	13	6	
	8	25	2	1	13	20	11	4	
	9	27	2	1	13	19	10	1	
89	1	5	3	5	14	3	20	24	
	2	11	2	5	13	2	19	23	
	3	12	2	5	11	2	18	21	
	4	14	2	5	10	2	16	20	
	5	17	2	5	10	2	15	18	
	6	18	2	5	9	1	15	17	
	7	21	2	5	8	1	14	16	
	8	22	2	5	6	1	12	15	
	9	29	2	5	5	1	11	15	
90	1	3	1	3	3	12	19	9	
	2	5	1	2	2	11	17	8	
	3	7	1	2	2	11	17	7	
	4	9	1	2	2	11	16	7	
	5	10	1	2	2	10	15	6	
	6	13	1	2	2	9	14	6	
	7	18	1	2	2	9	13	6	
	8	21	1	2	2	8	12	5	
	9	25	1	2	2	8	12	4	
91	1	1	4	4	25	28	22	18	
	2	2	4	4	24	27	21	14	
	3	5	4	3	24	23	20	13	
	4	10	3	3	24	18	17	13	
	5	12	3	3	23	17	15	10	
	6	14	3	2	22	14	15	9	
	7	19	2	1	21	10	11	8	
	8	23	2	1	20	7	10	5	
	9	25	2	1	20	4	9	5	
92	1	1	4	3	28	8	19	26	
	2	2	3	3	28	8	17	23	
	3	3	3	3	27	7	15	23	
	4	4	2	3	25	7	14	21	
	5	8	2	3	23	6	12	19	
	6	12	2	3	22	6	11	17	
	7	14	1	3	22	6	8	15	
	8	18	1	3	19	5	7	12	
	9	22	1	3	18	5	4	11	
93	1	4	5	5	19	19	30	25	
	2	5	4	4	17	17	26	20	
	3	6	4	4	17	17	24	19	
	4	8	4	4	16	16	23	14	
	5	9	3	3	16	15	19	12	
	6	11	3	3	15	14	16	12	
	7	13	3	2	15	12	13	8	
	8	16	2	2	14	12	11	6	
	9	24	2	2	13	11	11	3	
94	1	1	4	3	16	15	26	24	
	2	3	4	3	15	14	24	21	
	3	4	4	3	15	13	24	20	
	4	13	4	3	15	13	20	16	
	5	17	3	2	14	12	20	12	
	6	18	3	2	14	11	18	10	
	7	20	2	2	14	10	16	9	
	8	21	2	1	13	9	13	7	
	9	22	2	1	13	7	11	5	
95	1	2	4	5	16	30	4	19	
	2	4	4	4	16	24	4	19	
	3	15	4	4	13	20	4	15	
	4	16	3	3	12	20	4	14	
	5	17	3	3	11	16	3	11	
	6	18	2	3	9	14	3	11	
	7	22	2	2	8	8	2	7	
	8	24	1	2	7	6	2	5	
	9	25	1	2	5	4	2	4	
96	1	5	3	5	21	6	24	3	
	2	6	3	4	18	6	23	3	
	3	8	3	4	17	6	22	3	
	4	11	3	4	15	5	21	2	
	5	12	2	4	15	5	20	2	
	6	19	2	4	13	5	20	2	
	7	21	1	4	11	5	19	2	
	8	29	1	4	11	4	18	1	
	9	30	1	4	10	4	17	1	
97	1	2	2	3	8	24	25	29	
	2	3	2	3	7	24	22	26	
	3	9	2	3	7	22	20	24	
	4	15	2	3	6	21	20	24	
	5	16	2	3	6	20	18	21	
	6	17	2	3	5	20	16	18	
	7	19	2	3	4	19	12	16	
	8	21	2	3	4	18	10	14	
	9	23	2	3	4	17	8	14	
98	1	4	4	4	18	25	12	12	
	2	5	4	4	17	22	11	11	
	3	8	4	4	17	20	11	10	
	4	12	3	4	17	18	11	9	
	5	13	2	4	17	18	10	7	
	6	14	2	4	16	17	10	6	
	7	15	1	4	16	15	9	5	
	8	16	1	4	16	13	9	4	
	9	27	1	4	16	12	9	4	
99	1	1	4	3	9	22	13	26	
	2	9	3	3	8	21	13	26	
	3	10	3	3	8	19	11	26	
	4	11	3	3	8	19	11	25	
	5	12	3	3	8	18	10	25	
	6	13	3	3	7	17	9	25	
	7	18	3	3	7	16	8	25	
	8	19	3	3	7	15	7	24	
	9	20	3	3	7	14	7	24	
100	1	4	1	4	25	19	24	28	
	2	5	1	3	25	19	24	25	
	3	7	1	3	22	16	23	21	
	4	12	1	3	21	14	22	19	
	5	21	1	2	18	13	20	18	
	6	24	1	2	15	11	18	16	
	7	25	1	1	14	11	18	14	
	8	26	1	1	11	8	16	11	
	9	27	1	1	8	7	16	9	
101	1	8	4	4	17	28	14	24	
	2	13	3	4	16	26	14	24	
	3	15	3	4	14	26	14	24	
	4	16	3	4	14	25	14	24	
	5	19	2	4	11	25	14	24	
	6	24	2	4	9	24	13	24	
	7	25	1	4	7	24	13	24	
	8	27	1	4	7	24	13	23	
	9	29	1	4	4	23	13	24	
102	1	0	0	0	0	0	0	0	
************************************************************************

 RESOURCE AVAILABILITIES 
	R 1	R 2	N 1	N 2	N 3	N 4
	21	24	1164	1341	1272	1323

************************************************************************
